n_res = 4;
rc = [ 15, 12, 13, 14 ];
n_tasks = 30;
d = [ 10, 6, 10, 8, 6, 4, 5, 5, 9, 9, 10, 9, 9, 5, 9, 9, 5, 4, 7, 4, 5, 6, 5, 8, 2, 7, 4, 5, 8, 7 ];
rr = [| 0, 10, 9, 4, 2, 2, 0, 0, 9, 8, 0, 0, 0, 8, 6, 7, 9, 0, 2, 0, 0, 0, 0, 2, 5, 2, 0, 5, 8, 0
      | 7, 0, 2, 0, 0, 6, 0, 10, 0, 0, 3, 9, 0, 0, 0, 0, 0, 2, 4, 4, 0, 2, 0, 9, 1, 0, 5, 0, 10, 0
      | 0, 4, 2, 5, 3, 8, 3, 0, 0, 6, 0, 0, 0, 6, 5, 2, 0, 0, 1, 7, 0, 0, 10, 3, 3, 0, 0, 0, 6, 4
      | 0, 0, 0, 0, 4, 0, 0, 3, 8, 0, 0, 0, 5, 9, 10, 3, 1, 1, 0, 0, 3, 0, 5, 0, 0, 8, 0, 0, 0, 5 |];
suc = [ { 2 }, 
        { 1 }, 
        { 4 }, 
        { 3 }, 
        { 6 }, 
        { 5 }, 
        { 8 }, 
        { 7 }, 
        { 10 }, 
        { 9 }, 
        { 12 }, 
        { 11 }, 
        { 14 }, 
        { 13 }, 
        { 16 }, 
        { 15 }, 
        { 18 }, 
        { 17 }, 
        { 20 }, 
        { 19 }, 
        { 22 }, 
        { 21 }, 
        { 24 }, 
        { 23 }, 
        { 26 }, 
        { 25 }, 
        { 28 }, 
        { 27 }, 
        { 30 }, 
        { 29 }]; 
